c --- [ banner ] -------------------------------------------------------------
c 
c CaDiCaL Radically Simplified CDCL SAT Solver
c Copyright (c) 2016-2021 A. Biere, M. Fleury, N. Froleyks
c 
c Version 1.5.2 a5f15211db36c3956764e18194dd5bd63bf3b5e6
c g++ (GCC) 9.3.0 -Wall -Wextra -O3 -DNDEBUG
c Fri Oct 21 01:27:37 EDT 2022 Linux gra-login3 3.10.0-1160.66.1.el7.x86_64 x86_64
c 
c --- [ limit ] --------------------------------------------------------------
c 
c setting conflict limit to 200000 conflicts (due to '200000')
c 
c --- [ parsing input ] ------------------------------------------------------
c 
c reading DIMACS file from '33.cubes3187.adj'
c opening file to read '33.cubes3187.adj'
c found 'p cnf 6160 1595473' header
c parsed 1595473 clauses in 17.87 seconds process time
c closing file '33.cubes3187.adj'
c after reading 1457566762 bytes 1390.0 MB
c 
c --- [ options ] ------------------------------------------------------------
c 
c all options are set to their default value
c 
c --- [ solving ] ------------------------------------------------------------
c 
c time measured in process time since initialization
c 
c  seconds    reductions  redundant   irredundant
c          MB     restarts       trail       variables
c            level   conflicts       glue         remaining
c 
c * 17.87 1384  0 0   0    0    0  0% 0 1595422 2376 39%
c { 18.62 1424  0 0   0    0    0  0% 0 1595422 2376 39%
c i 20.00 1466 591 0   1   37   34 28% 3 1595422 2352 38%
c i 20.00 1466 574 0   1   38   34 27% 3 1595422 2351 38%
c i 20.86 1481 521 0   2   46   40 28% 4 1595422 2334 38%
c i 22.81 1505 271 0  19  154   86 23% 18 1595422 2333 38%
c i 24.21 1512 198 0  40  278  169 23% 34 1595422 2332 38%
c - 28.13 1410 184 1  40  300  160 23% 32 217410 2332 38%
c i 28.37 1410 150 1  40  376  173 21% 28 217410 2331 38%
c i 28.42 1410 149 1  40  383  179 21% 28 217410 2330 38%
c i 28.43 1410 148 1  40  384  179 22% 27 217410 2329 38%
c i 28.45 1410 147 1  40  389  183 22% 27 217410 2328 38%
c i 28.49 1410 145 1  40  393  186 22% 27 217410 2327 38%
c i 28.57 1410 142 1  40  404  196 22% 27 217410 2326 38%
c i 28.70 1410 140 1  40  425  214 22% 27 217410 2316 38%
c i 28.85 1410 138 1  43  450  236 23% 28 217410 2313 38%
c i 29.08 1410 134 1  51  473  257 23% 28 217410 2312 38%
c i 29.12 1410 133 1  51  477  260 23% 28 217410 2311 38%
c i 29.21 1410 130 1  53  496  277 23% 29 217410 2310 38%
c i 29.32 1410 121 1  61  548  300 23% 28 217410 2309 37%
c 
c  seconds     reductions  redundant   irredundant
c          MB      restarts       trail       variables
c             level   conflicts       glue         remaining
c 
c i 29.58 1411 122 1  64  583  331 24% 31 217410 2302 37%
c i 29.70 1411 123 1  68  599  344 24% 33 217410 2295 37%
c i 29.71 1411 123 1  69  601  345 24% 33 217410 2294 37%
c i 29.93 1411 121 1  76  634  375 24% 34 217410 2293 37%
c i 30.13 1411 120 1  80  651  388 24% 34 217410 2292 37%
c i 30.28 1411 116 1  86  682  411 24% 33 217410 2290 37%
c i 30.32 1411 115 1  86  693  420 24% 33 217410 2289 37%
c i 30.32 1411 115 1  86  695  421 24% 33 217410 2288 37%
c i 30.32 1411 115 1  86  697  421 24% 33 217410 2287 37%
c i 30.36 1411 113 1  86  714  436 25% 33 217410 2286 37%
c i 30.37 1411 112 1  86  718  438 25% 33 217410 2285 37%
c i 30.41 1411 111 1  86  734  451 25% 33 217410 2284 37%
c i 30.43 1411 109 1  86  756  470 25% 33 217410 2283 37%
c i 30.44 1411 108 1  86  761  473 25% 32 217410 2282 37%
c i 30.51 1411 102 1  86  819  510 26% 31 217410 2281 37%
c i 30.52 1411 101 1  86  833  520 26% 31 217410 2280 37%
c i 30.79 1411 99 1  94  917  587 26% 32 217410 2279 37%
c i 30.80 1411 99 1  94  921  588 26% 32 217410 2278 37%
c i 30.92 1411 99 1 101  944  607 26% 32 217410 2277 37%
c i 31.04 1411 97 1 105  967  626 26% 32 217410 2276 37%
c 
c  seconds    reductions  redundant   irredundant
c          MB     restarts       trail       variables
c            level   conflicts       glue         remaining
c 
c } 31.12 1411 95 1 105 1002  657 26% 32 217410 2276 37%
c [ 31.12 1411  0 1 105 1002  657  0% 0 217410 2276 37%
c O 31.12 1411  0 1 105 1003  657 12% 0 217410 2276 37%
c i 31.12 1411  0 1 105 1003  657 12% 0 217410 2258 37%
c i 31.12 1411  0 1 105 1004  657 12% 0 217410 2240 36%
c i 31.22 1411 16 1 105 1057  697 30% 13 217410 2239 36%
c - 31.65 1488 18 2 105 1103  680 32% 15 167400 2239 36%
c i 31.78 1488 17 2 105 1152  714 33% 15 167400 2238 36%
c i 31.88 1488 19 2 105 1302  818 33% 16 167400 2237 36%
c i 31.89 1488 19 2 105 1314  825 33% 16 167400 2236 36%
c i 31.94 1488 20 2 105 1495  930 33% 17 167400 2235 36%
c i 31.94 1488 20 2 105 1502  935 33% 17 167400 2234 36%
c i 32.03 1488 20 2 105 1755 1095 32% 18 167400 2233 36%
c i 32.03 1488 20 2 105 1768 1101 32% 18 167400 2232 36%
c i 32.10 1488 20 2 105 2022 1254 32% 17 167400 2231 36%
c i 32.12 1488 20 2 106 2082 1299 32% 18 167400 2230 36%
c i 32.19 1488 20 2 106 2194 1386 32% 18 167400 2229 36%
c - 32.40 1487 20 3 106 2204 1041 32% 18 167370 2229 36%
c i 32.62 1432 21 3 106 2267 1089 48% 18 167370 2228 36%
c i 32.67 1432 21 3 106 2329 1126 48% 18 167370 2227 36%
c 
c  seconds    reductions  redundant   irredundant
c          MB     restarts       trail       variables
c            level   conflicts       glue         remaining
c 
c i 32.70 1432 21 3 106 2367 1150 48% 19 167370 2226 36%
c i 32.84 1432 21 3 106 2569 1290 48% 18 167370 2225 36%
c ] 32.84 1432 21 3 106 2569 1290 48% 18 167370 2225 36%
c 1 32.84 1432 21 3 106 2569 1290 48% 18 167370 2225 36%
c 
c --- [ writing output ] -----------------------------------------------------
c 
c writing simplified CNF to DIMACS file 'simp/33.cubes3187.adj.simp1'
c * 32.84 1432 21 3 106 2569 1290 48% 18 167370 2225 36%
c opening file to write 'simp/33.cubes3187.adj.simp1'
c writing 'p cnf 6160 167358' header
c closing file 'simp/33.cubes3187.adj.simp1'
c after writing 89955645 bytes 85.8 MB
c wrote 167358 clauses in 0.56 seconds process time
c 
c --- [ writing extension ] --------------------------------------------------
c 
c writing extension stack to 'simp/33.cubes3187.adj.ext1'
c opening file to write 'simp/33.cubes3187.adj.ext1'
c closing file 'simp/33.cubes3187.adj.ext1'
c after writing 11644 bytes 0.0 MB
c wrote 791 witnesses in 0.00 seconds process time
c 
c --- [ result ] -------------------------------------------------------------
c 
s SATISFIABLE
c 
c --- [ run-time profiling ] -------------------------------------------------
c 
c process time taken by individual solving procedures
c (percentage relative to process time for solving)
c 
c        17.87  119.32% parse
c        14.97  100.00% search
c        12.50   83.47% unstable
c         1.73   11.52% stable
c         0.75    5.00% lucky
c         0.00    0.00% simplify
c   =================================
c        14.97   44.83% solve
c 
c last line shows process time for solving
c (percentage relative to total process time)
c 
c --- [ statistics ] ---------------------------------------------------------
c 
c chronological:               587        22.85 %  of conflicts
c conflicts:                  2569       171.56    per second
c decisions:                 18256      1219.17    per second
c fixed:                       791        12.84 %  of all variables
c learned:                    2511        97.74 %  per conflict
c learned_lits:             448614       100.00 %  learned literals
c minimized:                     0         0.00 %  learned literals
c shrunken:                 259436        57.83 %  learned literals
c minishrunken:              39163         8.73 %  learned literals
c propagations:             413050         0.03 M  per second
c reduced:                     397        15.45 %  per conflict
c rephased:                      1      2569.00    interval
c restarts:                    106        24.24    interval
c stabilizing:                   1        61.00 %  of conflicts
c subsumed:                    747         0.02 %  of all clauses
c 
c seconds are measured in process time for solving
c 
c --- [ resources ] ----------------------------------------------------------
c 
c total process time since initialization:        33.40    seconds
c total real time since initialization:           34.95    seconds
c maximum resident set size of process:         1563.80    MB
c 
c --- [ shutting down ] ------------------------------------------------------
c 
c exit 10
WARNING! DIMACS header mismatch: wrong number of variables.
============================[ Problem Statistics ]=============================
|                                                                             |
|  Number of variables:          6120                                         |
|  Number of clauses:          167358                                         |
|  Parse time:                   1.26 s                                       |
|  Simplification time:          0.03 s                                       |
|                                                                             |
============================[ Search Statistics ]====================================================
| Conflicts |          ORIGINAL         |          LEARNT          | Num Sols |      SUBGRAPHS      |
|           |    Vars  Clauses Literals |    Limit  Clauses Lit/Cl |          | Canonical Noncanon. |
=====================================================================================================
|       173 |    6021   167431 18995339 |     2000      170     88 |        0 |        46        73 |
|       802 |    6021   167910 19002044 |     2000      799     31 |        0 |       215       552 |
|      1121 |    6016   168004 19003383 |     2000     1113     48 |        0 |       240       646 |
|      1472 |    6014   168018 19004590 |     2000     1462     65 |        0 |       247       660 |
|      2366 |    6012   168406 19009639 |     3597     1362     19 |        0 |       303      1048 |
|      3202 |    6010   168483 19010959 |     3597     2196     52 |        0 |       336      1125 |
|      4685 |    6005   168827 19015549 |     5004     1889     12 |        0 |       434      1469 |
|      6624 |    6004   169058 19019152 |     5004     3827     55 |        0 |       480      1700 |
|      9487 |    6003   169359 19023362 |     6302     4189     43 |        0 |       565      2001 |
|     13642 |    6002   169670 19028868 |     7555     5196     46 |        0 |       746      2312 |
|     20785 |    5987   171046 19047884 |     8777     8562     51 |        0 |      1049      3689 |
|     30640 |    5987   172252 19067389 |    11209     9049     48 |        0 |      1465      4895 |
|     45389 |    5987   174027 19089952 |    13610    11999     47 |        0 |      1972      6670 |
|     66392 |    5986   175569 19112547 |    17214    10806     32 |        0 |      2330      8212 |
|     97313 |    5986   177298 19140272 |    20811    14124     41 |        0 |      2939      9941 |
|    143555 |    5986   179751 19176019 |    25612    15167     30 |        0 |      3658     12394 |
|    211734 |    5986   181614 19210016 |    30251    28385     53 |        1 |      4344     14888 |
|    312715 |    5986   184069 19247314 |    37613    29328     44 |        1 |      5064     17343 |
=====================================================================================================
Number of solutions   : 2
Canonical subgraphs   : 5323           (16 /sec)
          order  3    : 1              (166667 /sec)
          order  4    : 1              (500000 /sec)
          order  5    : 1              (250000 /sec)
          order  6    : 1              (50000 /sec)
          order  7    : 1              (8130 /sec)
          order  8    : 1              (916 /sec)
          order  9    : 2              (137 /sec)
          order 10    : 4              (84 /sec)
          order 11    : 16             (77 /sec)
          order 12    : 65             (59 /sec)
          order 13    : 138            (42 /sec)
          order 14    : 599            (30 /sec)
          order 15    : 2045           (22 /sec)
          order 16    : 1190           (15 /sec)
          order 17    : 981            (11 /sec)
          order 18    : 207            (9 /sec)
          order 19    : 40             (7 /sec)
          order 20    : 13             (7 /sec)
          order 21    : 15             (7 /sec)
          order 22    : 2              (1 /sec)
Noncanonical subgraphs: 18319          (162 /sec)
          order  3    : 0              (-nan /sec)
          order  4    : 0              (-nan /sec)
          order  5    : 0              (-nan /sec)
          order  6    : 0              (-nan /sec)
          order  7    : 0              (-nan /sec)
          order  8    : 0              (-nan /sec)
          order  9    : 0              (-nan /sec)
          order 10    : 0              (-nan /sec)
          order 11    : 0              (-nan /sec)
          order 12    : 0              (-nan /sec)
          order 13    : 395            (30983 /sec)
          order 14    : 3339           (1820 /sec)
          order 15    : 3321           (998 /sec)
          order 16    : 2701           (862 /sec)
          order 17    : 8233           (86 /sec)
          order 18    : 263            (47 /sec)
          order 19    : 50             (34 /sec)
          order 20    : 0              (-nan /sec)
          order 21    : 0              (-nan /sec)
Canonicity checking   : 324.383 s
Noncanonicity checking: 113.081 s
Total canonicity time : 437.464 s
database reductions   : 32
restarts              : 892
conflicts             : 371201         (633 /sec)
decisions             : 522850         (0.00 % random) (892 /sec)
propagations          : 36943977       (63010 /sec)
conflict literals     : 32622558       (56.97 % deleted)
actual reward         : 0.132953
Memory used           : 230.00 MB
CPU time              : 586.317 s

UNSATISFIABLE
